c --- [ banner ] -------------------------------------------------------------
c 
c CaDiCaL Radically Simplified CDCL SAT Solver
c Copyright (c) 2016-2021 A. Biere, M. Fleury, N. Froleyks
c 
c Version 1.5.2 a5f15211db36c3956764e18194dd5bd63bf3b5e6
c g++ (GCC) 9.3.0 -Wall -Wextra -O3 -DNDEBUG
c Fri Oct 21 01:27:37 EDT 2022 Linux gra-login3 3.10.0-1160.66.1.el7.x86_64 x86_64
c 
c --- [ limit ] --------------------------------------------------------------
c 
c setting conflict limit to 200000 conflicts (due to '200000')
c 
c --- [ parsing input ] ------------------------------------------------------
c 
c reading DIMACS file from '33.cubes3224.adj'
c opening file to read '33.cubes3224.adj'
c found 'p cnf 6160 1595474' header
c parsed 1595474 clauses in 16.94 seconds process time
c closing file '33.cubes3224.adj'
c after reading 1457566770 bytes 1390.0 MB
c 
c --- [ options ] ------------------------------------------------------------
c 
c all options are set to their default value
c 
c --- [ solving ] ------------------------------------------------------------
c 
c time measured in process time since initialization
c 
c  seconds    reductions  redundant   irredundant
c          MB     restarts       trail       variables
c            level   conflicts       glue         remaining
c 
c * 16.94 1378  0 0   0    0    0  0% 0 1595422 2473 40%
c { 17.56 1412  0 0   0    0    0  0% 0 1595422 2473 40%
c i 18.30 1442 1190 0   0   24   17 35% 3 1595422 2460 40%
c i 19.13 1462 1039 0   1   57   46 32% 3 1595422 2368 38%
c i 19.16 1463 1018 0   1   58   46 32% 3 1595422 2367 38%
c i 21.48 1505 574 0  12  102   79 30% 10 1595422 2356 38%
c i 23.97 1520 256 0  36  261  193 29% 23 1595422 2355 38%
c i 24.06 1520 234 0  36  290  220 29% 24 1595422 2354 38%
c - 27.42 1491 227 1  37  303  226 29% 24 222741 2354 38%
c i 27.96 1384 185 1  40  380  283 29% 24 222741 2353 38%
c i 28.00 1384 177 1  40  400  298 29% 24 222741 2352 38%
c i 28.38 1384 161 1  52  466  348 29% 25 222741 2351 38%
c i 28.63 1384 146 1  60  531  398 29% 25 222741 2350 38%
c i 28.81 1384 141 1  67  573  437 29% 27 222741 2322 38%
c i 28.90 1384 138 1  69  588  443 29% 26 222741 2310 38%
c i 29.49 1384 131 1  84  659  509 29% 28 222741 2309 37%
c i 29.52 1384 131 1  85  662  511 29% 28 222741 2308 37%
c i 30.24 1385 123 1 104  765  593 29% 28 222741 2307 37%
c i 30.27 1385 121 1 104  783  608 29% 28 222741 2306 37%
c i 30.39 1385 115 1 107  846  661 29% 28 222741 2305 37%
c 
c  seconds     reductions  redundant   irredundant
c          MB      restarts       trail       variables
c             level   conflicts       glue         remaining
c 
c i 30.44 1385 116 1 107  850  664 29% 28 222741 2304 37%
c i 30.91 1385 115 1 118  898  706 29% 29 222741 2303 37%
c i 31.30 1385 111 1 126  966  748 29% 29 222741 2302 37%
c } 31.56 1385 110 1 134 1001  777 29% 30 222741 2302 37%
c [ 31.56 1385  0 1 134 1001  777  0% 0 222741 2302 37%
c O 31.56 1385  0 1 134 1002  777 12% 0 222741 2302 37%
c i 31.56 1385  0 1 134 1002  777 12% 0 222741 2272 37%
c i 31.56 1385  1 1 134 1003  777 12% 0 222741 2258 37%
c - 32.18 1472 38 2 134 1111  759 32% 31 191172 2258 37%
c i 32.21 1472 38 2 134 1112  759 32% 31 191172 2257 37%
c i 32.25 1472 38 2 134 1122  768 32% 31 191172 2256 37%
c i 32.50 1472 37 2 134 1244  871 32% 30 191172 2255 37%
c i 32.51 1472 37 2 134 1256  879 32% 30 191172 2254 37%
c i 32.53 1472 36 2 134 1277  891 32% 30 191172 2253 37%
c i 32.53 1472 36 2 134 1278  891 32% 30 191172 2252 37%
c i 32.79 1472 36 2 134 1611 1109 32% 30 191172 2251 37%
c - 33.54 1471 35 3 135 2265 1156 32% 30 191151 2251 37%
c i 33.93 1471 34 3 135 2487 1304 53% 30 191151 2250 37%
c i 33.97 1471 34 3 135 2568 1347 53% 29 191151 2249 37%
c ] 34.36 1471 34 3 135 3003 1637 53% 30 191151 2249 37%
c 
c  seconds     reductions  redundant   irredundant
c          MB      restarts       trail       variables
c             level   conflicts       glue         remaining
c 
c { 34.36 1471 110 3 135 3003 1637 78% 30 191151 2249 37%
c F 34.37 1471 110 3 136 3004 1638 78% 30 191151 2249 37%
c i 34.43 1471 109 3 136 3012 1645 78% 30 191151 2248 36%
c i 34.47 1471 108 3 136 3025 1657 77% 30 191151 2247 36%
c i 34.61 1471 107 3 139 3061 1689 76% 30 191151 2246 36%
c i 34.62 1471 106 3 141 3066 1693 76% 30 191151 2245 36%
c i 34.69 1471 107 3 149 3098 1721 75% 32 191151 2244 36%
c i 34.72 1471 107 3 151 3105 1723 75% 32 191151 2242 36%
c i 35.05 1471 106 3 166 3168 1782 74% 33 191151 2241 36%
c i 35.37 1471 104 3 190 3267 1867 72% 34 191151 2240 36%
c i 35.40 1471 104 3 191 3273 1872 72% 34 191151 2239 36%
c i 35.58 1471 104 3 200 3306 1903 71% 35 191151 2238 36%
c i 35.60 1471 104 3 202 3310 1906 71% 35 191151 2237 36%
c i 35.74 1471 104 3 205 3326 1919 71% 35 191151 2236 36%
c i 35.86 1471 103 3 213 3376 1959 70% 35 191151 2235 36%
c i 35.87 1471 102 3 213 3385 1966 70% 35 191151 2234 36%
c i 35.87 1471 102 3 213 3386 1966 70% 35 191151 2233 36%
c - 36.55 1387 90 4 224 3803 1689 65% 34 191097 2233 36%
c i 36.56 1387 89 4 224 3808 1693 65% 34 191097 2232 36%
c i 36.64 1387 89 4 224 3830 1712 64% 34 191097 2231 36%
c 
c  seconds    reductions  redundant   irredundant
c          MB     restarts       trail       variables
c            level   conflicts       glue         remaining
c 
c i 36.65 1387 89 4 224 3836 1717 64% 34 191097 2230 36%
c i 36.65 1387 89 4 224 3844 1720 64% 34 191097 2229 36%
c i 36.68 1387 88 4 224 3851 1726 64% 34 191097 2228 36%
c i 36.78 1387 85 4 224 3963 1805 63% 33 191097 2227 36%
c p 41.98 1387 67 4 224 5001 6605 58% 30 191065 2152 35%
c d 42.28 1387 67 4 224 5001 6565 58% 30 190870 2151 35%
c - 43.24 1387 61 5 228 5724 2281 56% 30 190870 2151 35%
c # 43.60 1387 59 5 240 6007 2501 56% 30 190870 2151 35%
c } 44.09 1387 53 5 248 7003 3240 54% 28 190870 2151 35%
c [ 44.09 1387 34 5 248 7003 3240 53% 30 190870 2151 35%
c - 44.58 1387 32 6 249 8029 2773 51% 27 190870 2151 35%
c I 45.56 1387 28 6 250 10009 4122 50% 24 190870 2151 35%
c - 46.15 1387 32 7 251 10719 3284 51% 26 190870 2151 35%
c - 47.22 1389 40 8 253 13792 3763 51% 32 190870 2151 35%
c ] 47.80 1389 41 8 253 15003 4663 51% 33 190870 2151 35%
c { 47.80 1389 53 8 253 15003 4663 54% 28 190870 2151 35%
c p 49.19 1389 53 8 253 15003 8523 54% 28 190870 2151 35%
c B 49.31 1389 53 8 253 15010 8530 54% 28 190870 2151 35%
c - 51.49 1390 44 9 254 17249 4169 54% 26 190870 2151 35%
c s 52.96 1390 41 9 254 18667 5116 54% 25 188517 2151 35%
c 
c  seconds    reductions   redundant   irredundant
c          MB     restarts        trail       variables
c            level    conflicts       glue         remaining
c 
c v 55.33 1390 41 9 254 18667 5116 54% 25 188507 2151 35%
c t 55.40 1390 41 9 254 18667 5109 54% 25 188501 2151 35%
c e 55.84 1392 41 9 254 18667 4871 54% 25 185485 687 11%
c s 55.90 1392 41 9 254 18667 4871 54% 25 182399 687 11%
c W 58.78 1392 37 9 264 21011 6397 85% 24 182399 687 11%
c - 58.91 1392 37 10 268 21091 4542 85% 24 182399 687 11%
c - 60.87 1392 32 11 278 25255 4616 84% 22 182399 687 11%
c F 62.89 1392 30 11 382 28012 6433 84% 21 182399 687 11%
c - 64.40 1392 30 12 412 29796 5231 84% 21 182399 687 11%
c p 65.71 1392 30 12 412 30003 6963 84% 21 182399 687 11%
c } 66.27 1392 29 12 412 31003 7419 84% 20 182399 687 11%
c [ 66.27 1392 41 12 412 31003 7419 166% 33 182399 687 11%
c - 67.26 1392 35 13 414 34713 5718 140% 29 182399 687 11%
c B 67.73 1392 34 13 415 36014 6547 135% 28 182399 687 11%
c ] 67.80 1392 34 13 415 36063 6587 134% 28 182399 687 11%
c 1 67.80 1392 34 13 415 36063 6587 134% 28 182399 687 11%
c 
c --- [ writing output ] -----------------------------------------------------
c 
c writing simplified CNF to DIMACS file 'simp/33.cubes3224.adj.simp1'
c * 67.80 1392 34 13 415 36063 6587 134% 28 182399 687 11%
c opening file to write 'simp/33.cubes3224.adj.simp1'
c writing 'p cnf 6160 182399' header
c closing file 'simp/33.cubes3224.adj.simp1'
c after writing 90209489 bytes 86.0 MB
c wrote 182399 clauses in 0.67 seconds process time
c 
c --- [ writing extension ] --------------------------------------------------
c 
c writing extension stack to 'simp/33.cubes3224.adj.ext1'
c opening file to write 'simp/33.cubes3224.adj.ext1'
c closing file 'simp/33.cubes3224.adj.ext1'
c after writing 94792 bytes 0.1 MB
c wrote 4172 witnesses in 0.00 seconds process time
c 
c --- [ result ] -------------------------------------------------------------
c 
s SATISFIABLE
c 
c --- [ run-time profiling ] -------------------------------------------------
c 
c process time taken by individual solving procedures
c (percentage relative to process time for solving)
c 
c        39.95   78.55% search
c        31.15   61.24% unstable
c        16.94   33.30% parse
c        10.91   21.44% simplify
c         8.04   15.82% stable
c         6.80   13.38% probe
c         2.41    4.75% vivify
c         0.81    1.60% elim
c         0.62    1.22% lucky
c         0.14    0.28% walk
c         0.12    0.24% subsume
c         0.08    0.15% ternary
c   =================================
c        50.86   74.28% solve
c 
c last line shows process time for solving
c (percentage relative to total process time)
c 
c --- [ statistics ] ---------------------------------------------------------
c 
c chronological:              6027        16.71 %  of conflicts
c conflicts:                 36063       709.03    per second
c decisions:                 71466      1405.09    per second
c eliminated:                 1464        23.77 %  of all variables
c fixed:                       857        13.91 %  of all variables
c learned:                   35315        97.93 %  per conflict
c learned_lits:            6753650       100.00 %  learned literals
c minimized:                     0         0.00 %  learned literals
c shrunken:                4604146        68.17 %  learned literals
c minishrunken:             410333         6.08 %  learned literals
c propagations:            3267376         0.06 M  per second
c reduced:                   18134        50.28 %  per conflict
c rephased:                      8      4507.88    interval
c restarts:                    415        86.90    interval
c stabilizing:                   3        41.77 %  of conflicts
c substituted:                   8         0.13 %  of all variables
c subsumed:                  15944         0.48 %  of all clauses
c strengthened:               2235         0.07 %  of all clauses
c ternary:                    2214         0.63 %  of resolved
c vivified:                     18         0.00 %  of all clauses
c walked:                        1     36063.00    interval
c weakened:                   3315         3.05    average size
c 
c seconds are measured in process time for solving
c 
c --- [ resources ] ----------------------------------------------------------
c 
c total process time since initialization:        68.47    seconds
c total real time since initialization:           74.73    seconds
c maximum resident set size of process:         1558.39    MB
c 
c --- [ shutting down ] ------------------------------------------------------
c 
c exit 10
WARNING! DIMACS header mismatch: wrong number of variables.
============================[ Problem Statistics ]=============================
|                                                                             |
|  Number of variables:          2890                                         |
|  Number of clauses:          182399                                         |
|  Parse time:                   1.22 s                                       |
|  Simplification time:          0.03 s                                       |
|                                                                             |
============================[ Search Statistics ]====================================================
| Conflicts |          ORIGINAL         |          LEARNT          | Num Sols |      SUBGRAPHS      |
|           |    Vars  Clauses Literals |    Limit  Clauses Lit/Cl |          | Canonical Noncanon. |
=====================================================================================================
|       133 |    2794   182432 19339512 |     2000      133    101 |        0 |        28        33 |
|       283 |    2794   182432 19339512 |     2000      283    100 |        0 |        40        33 |
|       519 |    2794   182443 19340095 |     2000      519     96 |        0 |        61        44 |
|       866 |    2794   182453 19340684 |     2000      866    105 |        0 |        79        54 |
|      1375 |    2794   182456 19340725 |     2000     1375    108 |        0 |        94        57 |
|      2222 |    2794   182544 19341843 |     3603     1225     72 |        0 |       120       145 |
|      3424 |    2794   182607 19343179 |     3603     2427     81 |        0 |       141       208 |
|      5230 |    2794   182705 19345218 |     5007     2437     67 |        0 |       208       306 |
|      7913 |    2794   182826 19347392 |     6305     2618     48 |        0 |       261       427 |
|     11838 |    2794   182907 19349385 |     7553     3391     47 |        0 |       319       508 |
|     18166 |    2794   183469 19359338 |     8782     5948     61 |        0 |       508      1070 |
|     27405 |    2794   184059 19368573 |    11198     5803     35 |        0 |       699      1660 |
|     40848 |    2794   184528 19377128 |    13609     7457     35 |        0 |       924      2129 |
|     61219 |    2794   185438 19392478 |    16003    13622     61 |        0 |      1240      3039 |
|     91527 |    2794   186554 19413554 |    19604    18131     62 |        0 |      1721      4155 |
|    135840 |    2794   187078 19420610 |    24406    19646     59 |        0 |      1855      4679 |
|    202245 |    2794   187799 19436483 |    30421    19066     52 |        0 |      2203      5400 |
|    305204 |    2794   192232 19509566 |    37614    21818     42 |        0 |      2681      9833 |
|    455884 |    2794   195123 19569750 |    46012    28296     49 |        0 |      3499     12724 |
|    678840 |    2794   196396 19609815 |    55609    50449     66 |        0 |      4343     13997 |
|   1012423 |    2794   197454 19638682 |    68824    45247     55 |        0 |      4829     15055 |
|   1513118 |    2794   199361 19686731 |    84426    51944     49 |        0 |      5298     16962 |
|   2277101 |    2794   215162 20007320 |   103617    68718     54 |       10 |      8314     32753 |
|   3407307 |    2794   223094 20179292 |   126421   112128     64 |       16 |      9557     40679 |
|   5098384 |    2794   230760 20378917 |   155220   120804     53 |       17 |     11418     48344 |
|   7636280 |    2773   194377 19630911 |   168797   143477     82 |       22 |     15191     61119 |
|  11431523 |    2752   197903 19755239 |   233168   161890     51 |       22 |     16703     68687 |
=====================================================================================================
Number of solutions   : 23
Canonical subgraphs   : 16964          (19 /sec)
          order  3    : 1              (200000 /sec)
          order  4    : 1              (500000 /sec)
          order  5    : 1              (250000 /sec)
          order  6    : 1              (47619 /sec)
          order  7    : 1              (7692 /sec)
          order  8    : 2              (1252 /sec)
          order  9    : 6              (297 /sec)
          order 10    : 19             (202 /sec)
          order 11    : 51             (123 /sec)
          order 12    : 171            (93 /sec)
          order 13    : 380            (63 /sec)
          order 14    : 1491           (39 /sec)
          order 15    : 3580           (28 /sec)
          order 16    : 3436           (20 /sec)
          order 17    : 4057           (20 /sec)
          order 18    : 1563           (15 /sec)
          order 19    : 292            (11 /sec)
          order 20    : 489            (11 /sec)
          order 21    : 1399           (11 /sec)
          order 22    : 23             (1 /sec)
Noncanonical subgraphs: 69051          (128 /sec)
          order  3    : 0              (-nan /sec)
          order  4    : 0              (-nan /sec)
          order  5    : 0              (-nan /sec)
          order  6    : 0              (-nan /sec)
          order  7    : 0              (-nan /sec)
          order  8    : 0              (-nan /sec)
          order  9    : 0              (-nan /sec)
          order 10    : 0              (-nan /sec)
          order 11    : 0              (-nan /sec)
          order 12    : 0              (-nan /sec)
          order 13    : 882            (18282 /sec)
          order 14    : 1843           (2084 /sec)
          order 15    : 9514           (1163 /sec)
          order 16    : 6417           (528 /sec)
          order 17    : 46884          (137 /sec)
          order 18    : 1688           (80 /sec)
          order 19    : 395            (44 /sec)
          order 20    : 12             (9188 /sec)
          order 21    : 2              (8439 /sec)
Canonicity checking   : 884.848 s
Noncanonicity checking: 537.683 s
Total canonicity time : 1422.53 s
database reductions   : 194
restarts              : 16764
conflicts             : 11626188       (2035 /sec)
decisions             : 14188221       (0.00 % random) (2483 /sec)
propagations          : 445748261      (78006 /sec)
conflict literals     : 1155811278     (59.86 % deleted)
actual reward         : 0.339300
Memory used           : 400.00 MB
CPU time              : 5714.31 s

UNSATISFIABLE
